\ENCODING=ISO-8859-1
\Problem name: IloCplex

Maximize
 obj: - 0.102981029810298 v22 - 0.777777777777778 v23 - 0.154471544715447 v3
      - v6 - 0.040650406504065 v18 - 0.0785907859078591 v8
      - 0.281842818428184 v0 + 1003 f2315 + 2 f2322 + f239 + 1000 f2324 + f2314
      + f1121 - 0.043360433604336 v11 + f117 + f813 + f119 + f816 + 1000 f69
      + f1820 + 1000 f06 + 1001 f615 + f188 + 1000 f010 + f2312 + f23
      - 0.0542005420054201 v2 + 1000 f023 + f24 - 0.116531165311653 v4
      + 12 f1715 + 999.894308943089 v17 + 3 f08 + f25 - 0.105691056910569 v5
      + f2317 + 1001 f2215 + 2 f07 + f018 + 1000 f015 + 1000 f02 + 1000 f04
      + 1000 f01 - 0.18970189701897 v1 + 1000 f017 + f09
Subject To
 c1:  v24 <= 0
 c2:  v22 <= 1
 c3:  v22 >= 1
 c4:  v23 <= 1
 c5:  v23 >= 1
 c6:  v21 <= 0
 c7:  v20 <= 0
 c8:  v19 <= 0
 c9:  v16 <= 0
 c10: v3 <= 1
 c11: v3 >= 1
 c12: v6 <= 1
 c13: v6 >= 1
 c14: v18 <= 1
 c15: v18 >= 1
 c16: v7 <= 0
 c17: v13 <= 0
 c18: v8 <= 1
 c19: v8 >= 1
 c20: v9 <= 0
 c21: v12 <= 0
 c22: v10 <= 0
 c23: v14 <= 0
 c24: v15 <= 0
 c25: v0 <= 0
 c26: - v23 + v15 + f2315 <= 1
 c27: v23 - v15 + f2315 <= 1
 c28: v22 - v23 + f2322 <= 1
 c29: - v22 + v23 + f2322 <= 1
 c30: - v23 + v9 + f239 <= 1
 c31: v23 - v9 + f239 <= 1
 c32: v24 - v23 + f2324 <= 1
 c33: - v24 + v23 + f2324 <= 1
 c34: - v23 + v14 + f2314 <= 1
 c35: v23 - v14 + f2314 <= 1
 c36: v21 + f1121 - v11 <= 1
 c37: - v21 + f1121 + v11 <= 1
 c38: v7 - v11 + f117 <= 1
 c39: - v7 + v11 + f117 <= 1
 c40: v13 - v8 + f813 <= 1
 c41: - v13 + v8 + f813 <= 1
 c42: v9 - v11 + f119 <= 1
 c43: - v9 + v11 + f119 <= 1
 c44: v16 - v8 + f816 <= 1
 c45: - v16 + v8 + f816 <= 1
 c46: - v6 + v9 + f69 <= 1
 c47: v6 - v9 + f69 <= 1
 c48: v20 - v18 + f1820 <= 1
 c49: - v20 + v18 + f1820 <= 1
 c50: v6 - v0 + f06 <= 1
 c51: - v6 + v0 + f06 <= 1
 c52: - v6 + v15 + f615 <= 1
 c53: v6 - v15 + f615 <= 1
 c54: - v18 + v8 + f188 <= 1
 c55: v18 - v8 + f188 <= 1
 c56: v10 - v0 + f010 <= 1
 c57: - v10 + v0 + f010 <= 1
 c58: - v23 + v12 + f2312 <= 1
 c59: v23 - v12 + f2312 <= 1
 c60: v3 + f23 - v2 <= 1
 c61: - v3 + f23 + v2 <= 1
 c62: v23 - v0 + f023 <= 1
 c63: - v23 + v0 + f023 <= 1
 c64: - v2 + f24 + v4 <= 1
 c65: v2 + f24 - v4 <= 1
 c66: v15 + f1715 - v17 <= 1
 c67: - v15 + f1715 + v17 <= 1
 c68: v8 - v0 + f08 <= 1
 c69: - v8 + v0 + f08 <= 1
 c70: - v2 + f25 + v5 <= 1
 c71: v2 + f25 - v5 <= 1
 c72: - v23 + v17 + f2317 <= 1
 c73: v23 - v17 + f2317 <= 1
 c74: - v22 + v15 + f2215 <= 1
 c75: v22 - v15 + f2215 <= 1
 c76: v7 - v0 + f07 <= 1
 c77: - v7 + v0 + f07 <= 1
 c78: v18 - v0 + f018 <= 1
 c79: - v18 + v0 + f018 <= 1
 c80: v15 - v0 + f015 <= 1
 c81: - v15 + v0 + f015 <= 1
 c82: - v0 + v2 + f02 <= 1
 c83: v0 - v2 + f02 <= 1
 c84: - v0 + v4 + f04 <= 1
 c85: v0 - v4 + f04 <= 1
 c86: - v0 + f01 + v1 <= 1
 c87: v0 + f01 - v1 <= 1
 c88: - v0 + v17 + f017 <= 1
 c89: v0 - v17 + f017 <= 1
 c90: v9 - v0 + f09 <= 1
 c91: - v9 + v0 + f09 <= 1
Bounds
 0 <= v24 <= 1
 0 <= v22 <= 1
 0 <= v23 <= 1
 0 <= v21 <= 1
 0 <= v20 <= 1
 0 <= v19 <= 1
 0 <= v16 <= 1
 0 <= v3 <= 1
 0 <= v6 <= 1
 0 <= v18 <= 1
 0 <= v7 <= 1
 0 <= v13 <= 1
 0 <= v8 <= 1
 0 <= v9 <= 1
 0 <= v12 <= 1
 0 <= v10 <= 1
 0 <= v14 <= 1
 0 <= v15 <= 1
 0 <= v0 <= 1
 0 <= f2315 <= 1
 0 <= f2322 <= 1
 0 <= f239 <= 1
 0 <= f2324 <= 1
 0 <= f2314 <= 1
 0 <= f1121 <= 1
 0 <= v11 <= 1
 0 <= f117 <= 1
 0 <= f813 <= 1
 0 <= f119 <= 1
 0 <= f816 <= 1
 0 <= f69 <= 1
 0 <= f1820 <= 1
 0 <= f06 <= 1
 0 <= f615 <= 1
 0 <= f188 <= 1
 0 <= f010 <= 1
 0 <= f2312 <= 1
 0 <= f23 <= 1
 0 <= v2 <= 1
 0 <= f023 <= 1
 0 <= f24 <= 1
 0 <= v4 <= 1
 0 <= f1715 <= 1
 0 <= v17 <= 1
 0 <= f08 <= 1
 0 <= f25 <= 1
 0 <= v5 <= 1
 0 <= f2317 <= 1
 0 <= f2215 <= 1
 0 <= f07 <= 1
 0 <= f018 <= 1
 0 <= f015 <= 1
 0 <= f02 <= 1
 0 <= f04 <= 1
 0 <= f01 <= 1
 0 <= v1 <= 1
 0 <= f017 <= 1
 0 <= f09 <= 1
End
